#######################################
### Exact MIP solver for the HHCRSP ###
#######################################
-- Instance file: ../instances-HHCRSP/InstanzCPLEX_HCSRP_50_3.txt
-- Max threads: 1
-- Time limit: 30 seconds
-- Use initial solution: No
Instance: Skills statistics exported.
Trivial flow violations prevented generating 7093 variables.
Model exported.
SKIP_OPT flag set. Exiting.

Welcome to IBM(R) ILOG(R) CPLEX(R) Interactive Optimizer 20.1.0.0
  with Simplex, Mixed Integer & Barrier Optimizers
5725-A06 5725-A29 5724-Y48 5724-Y49 5724-Y54 5724-Y55 5655-Y21
Copyright IBM Corp. 1988, 2020.  All Rights Reserved.

Type 'help' for a list of available commands.
Type 'help' followed by a command name for more
information on commands.

CPLEX> Problem 'model.lp' read.
Read time = 0.05 sec. (3.66 ticks)
CPLEX> Problem changed to LP.
CPLEX> Version identifier: 20.1.0.0 | 2020-11-10 | 9bedb6d68
Parallel mode: deterministic, using up to 8 threads for concurrent optimization:
 * Starting dual Simplex on 1 thread...
 * Starting Barrier on 6 threads...
 * Starting primal Simplex on 1 thread...
Tried aggregator 1 time.
LP Presolve eliminated 6664 rows and 400 columns.
Reduced LP has 9410 rows, 7327 columns, and 107843 nonzeros.
Presolve time = 0.04 sec. (33.84 ticks)
Symmetry aggregator did 6076 additional substitutions.
Initializing dual steep norms . . .

Iteration log . . .
Iteration:     1   Dual objective     =             1.054093
Iteration:   221   Dual objective     =           197.317730

Dual crossover.
  Dual:  Fixing 112 variables.
      111 DMoves:  Infeasibility  5.66214471e-14  Objective  1.97317916e+02
        0 DMoves:  Infeasibility  3.38063639e-14  Objective  1.97317916e+02
  Dual:  Pushed 13, exchanged 99.
  Primal:  Fixing 37 variables.
       36 PMoves:  Infeasibility  7.39425882e-17  Objective  1.97317916e+02
        0 PMoves:  Infeasibility  1.99753408e-15  Objective  1.97317916e+02
  Primal:  Pushed 21, exchanged 16.

Dual simplex solved model.


Dual simplex - Optimal:  Objective =  1.9731791579e+02
Solution time =    0.09 sec.  Iterations = 224 (0)
Deterministic time = 72.45 ticks  (777.64 ticks/sec)

CPLEX> Dual simplex - Optimal:  Objective =  1.9731791579e+02
CPLEX> 